
******************************************************************************
This program contains Ipopt, a library for large-scale nonlinear optimization.
 Ipopt is released as open source code under the Eclipse Public License (EPL).
         For more information visit http://projects.coin-or.org/Ipopt

This version of Ipopt was compiled from source code available at
    https://github.com/IDAES/Ipopt as part of the Institute for the Design of
    Advanced Energy Systems Process Systems Engineering Framework (IDAES PSE
    Framework) Copyright (c) 2018-2019. See https://github.com/IDAES/idaes-pse.

This version of Ipopt was compiled using HSL, a collection of Fortran codes
    for large-scale scientific computation.  All technical papers, sales and
    publicity material resulting from use of the HSL codes within IPOPT must
    contain the following acknowledgement:
        HSL, a collection of Fortran codes for large-scale scientific
        computation. See http://www.hsl.rl.ac.uk.
******************************************************************************

This is Ipopt version 3.13.2, running with linear solver ma27.

Number of nonzeros in equality constraint Jacobian...:      808
Number of nonzeros in inequality constraint Jacobian.:        0
Number of nonzeros in Lagrangian Hessian.............:      702

Total number of variables............................:      351
                     variables with only lower bounds:      108
                variables with lower and upper bounds:      189
                     variables with only upper bounds:        0
Total number of equality constraints.................:      350
Total number of inequality constraints...............:        0
        inequality constraints with only lower bounds:        0
   inequality constraints with lower and upper bounds:        0
        inequality constraints with only upper bounds:        0

iter    objective    inf_pr   inf_du lg(mu)  ||d||  lg(rg) alpha_du alpha_pr  ls
   0  0.0000000e+00 4.44e-01 3.55e-15  -1.0 0.00e+00    -  0.00e+00 0.00e+00   0
   1  1.8292804e+00 3.11e-01 1.12e+04  -1.0 2.60e+05    -  6.93e-01 3.19e-01h  1
   2  1.9243601e+00 3.08e-01 1.12e+04  -1.0 2.24e+05    -  7.59e-01 1.12e-02h  1
   3  2.5257471e+01 4.14e-02 1.19e+04  -1.0 2.51e+05    -  7.63e-01 9.90e-01h  1
   4  3.1213370e+01 1.25e-03 5.98e+02  -1.0 3.78e+04    -  9.57e-01 9.90e-01h  1
   5  3.1382691e+01 1.33e-05 5.66e+00  -1.0 1.05e+03    -  9.90e-01 9.90e-01h  1
   6  3.1383272e+01 1.32e-05 1.46e+07  -1.0 9.43e+02    -  9.90e-01 7.73e-03f  8
   7  3.1385059e+01 1.30e-05 2.89e+07  -1.0 1.46e+03    -  9.90e-01 1.55e-02f  7
   8  3.1498635e+01 8.50e-05 4.41e+05  -1.0 1.46e+03    -  1.00e+00 9.90e-01H  1
   9  3.1497983e+01 8.32e-07 1.52e+07  -1.0 8.64e+00    -  1.00e+00 9.90e-01h  1
iter    objective    inf_pr   inf_du lg(mu)  ||d||  lg(rg) alpha_du alpha_pr  ls
  10  3.1497985e+01 8.33e-09 1.52e+09  -1.0 2.76e-02    -  1.00e+00 9.90e-01h  1
  11  3.1497985e+01 8.31e-11 1.52e+11  -1.0 2.75e-04    -  1.00e+00 9.90e-01h  1
In iteration 11, 27 Slacks too small, adjusting variable bounds
  12  3.1497985e+01 1.17e-12 1.52e+13  -1.0 2.77e-06    -  1.00e+00 9.90e-01h  1
  13  3.1497985e+01 1.73e-12 1.13e+15  -1.0 3.42e-07    -  1.00e+00 2.50e-01h  3
  14  3.1497985e+01 1.72e-12 5.64e+14  -1.0 4.88e-07    -  1.00e+00 5.00e-01h  2
  15  3.1497985e+01 1.04e-12 5.66e-02  -1.0 3.50e-07    -  1.00e+00 1.00e+00H  1
  16  3.1497984e+01 7.85e-13 1.53e+13  -9.0 1.71e+03    -  9.98e-01 1.31e-05f 17
  17  3.1497983e+01 1.03e-12 1.53e+13  -9.0 1.47e+03    -  9.99e-01 1.90e-06f 20
  18  3.1497982e+01 7.43e-13 1.53e+13  -9.0 1.47e+03    -  1.00e+00 1.53e-05f 17
  19  3.1497978e+01 8.82e-13 1.53e+13  -9.0 1.47e+03    -  1.00e+00 3.05e-05f 16
iter    objective    inf_pr   inf_du lg(mu)  ||d||  lg(rg) alpha_du alpha_pr  ls
  20  3.1497978e+01 1.06e-12 1.53e+13  -9.0 1.47e+03    -  1.00e+00 2.38e-07f 23
  21  3.1383388e+01 9.81e-04 1.80e+00  -9.0 1.47e+03    -  1.00e+00 1.00e+00f  1
  22  3.1382134e+01 4.60e-09 3.46e-04  -9.0 1.53e+01    -  1.00e+00 1.00e+00h  1
  23  3.1382134e+01 8.89e-13 2.91e-11  -9.0 1.64e-04    -  1.00e+00 1.00e+00h  1

Number of Iterations....: 23

                                   (scaled)                 (unscaled)
Objective...............:   3.1382134487120339e+01    3.1382134487120339e+01
Dual infeasibility......:   2.9103830456733704e-11    2.9103830456733704e-11
Constraint violation....:   8.8862250890997529e-13    8.8862250890997529e-13
Complementarity.........:   9.0909091315974901e-10    9.0909091315974901e-10
Overall NLP error.......:   1.1726241015034102e-11    9.0909091315974901e-10


Number of objective function evaluations             = 158
Number of objective gradient evaluations             = 24
Number of equality constraint evaluations            = 158
Number of inequality constraint evaluations          = 0
Number of equality constraint Jacobian evaluations   = 24
Number of inequality constraint Jacobian evaluations = 0
Number of Lagrangian Hessian evaluations             = 23
Total CPU secs in IPOPT (w/o function evaluations)   =      0.058
Total CPU secs in NLP function evaluations           =      1.280

EXIT: Optimal Solution Found.
